500
150 150
1 105 873
2 105 687
3 105 976
4 105 425
5 104 397
6 104 1000
7 104 820
8 104 544
9 104 975
10 104 523
11 104 569
12 104 622
13 103 492
14 103 849
15 103 514
16 103 639
17 103 392
18 102 996
19 102 706
20 102 527
21 102 367
22 102 459
23 102 866
24 102 336
25 101 386
26 101 57
27 101 151
28 100 227
29 100 944
30 100 99
31 100 806
32 99 23
33 99 129
34 99 246
35 99 589
36 99 746
37 99 510
38 99 660
39 98 502
40 98 569
41 98 174
42 98 102
43 98 857
44 98 659
45 98 258
46 97 694
47 97 85
48 97 776
49 97 336
50 97 449
51 97 531
52 97 572
53 96 386
54 96 413
55 96 62
56 95 496
57 95 900
58 95 533
59 94 959
60 94 193
61 94 965
62 94 911
63 94 55
64 94 637
65 94 442
66 93 1000
67 93 746
68 93 381
69 93 589
70 93 692
71 93 390
72 92 349
73 92 52
74 92 521
75 92 441
76 92 707
77 92 97
78 92 594
79 92 802
80 91 437
81 91 100
82 91 89
83 91 586
84 91 257
85 91 145
86 90 354
87 90 226
88 90 748
89 90 384
90 90 277
91 90 768
92 90 669
93 90 346
94 90 343
95 90 273
96 89 366
97 89 174
98 89 810
99 89 738
100 89 771
101 89 62
102 89 879
103 89 682
104 89 620
105 89 407
106 88 592
107 88 156
108 88 570
109 88 829
110 88 533
111 88 541
112 88 990
113 88 628
114 88 900
115 87 53
116 87 240
117 87 289
118 87 354
119 86 78
120 86 661
121 86 250
122 86 270
123 86 458
124 85 977
125 85 304
126 85 291
127 85 531
128 85 800
129 85 483
130 85 878
131 85 533
132 85 102
133 84 608
134 84 236
135 84 984
136 84 915
137 84 639
138 84 863
139 84 844
140 84 683
141 83 412
142 83 414
143 83 685
144 83 254
145 83 751
146 83 745
147 82 200
148 81 610
149 81 825
150 81 43
151 81 415
152 81 878
153 80 327
154 80 461
155 80 826
156 80 561
157 79 348
158 79 436
159 79 506
160 79 283
161 79 834
162 79 165
163 78 523
164 78 590
165 78 172
166 78 366
167 78 462
168 78 366
169 77 245
170 77 522
171 77 838
172 77 246
173 77 685
174 77 228
175 77 840
176 76 620
177 76 512
178 76 391
179 76 954
180 75 721
181 75 81
182 75 666
183 74 915
184 74 840
185 74 157
186 73 616
187 72 741
188 72 407
189 72 607
190 71 299
191 71 672
192 71 561
193 71 141
194 71 483
195 70 40
196 70 842
197 70 793
198 70 434
199 70 354
200 70 42
201 70 968
202 69 458
203 69 704
204 69 191
205 69 22
206 69 680
207 69 968
208 69 835
209 69 347
210 68 185
211 68 254
212 68 747
213 68 752
214 67 321
215 67 191
216 67 662
217 66 226
218 66 800
219 66 281
220 66 457
221 66 198
222 66 356
223 66 705
224 65 293
225 64 898
226 64 150
227 64 641
228 64 450
229 64 724
230 64 997
231 63 362
232 63 387
233 63 410
234 63 82
235 63 592
236 63 183
237 63 915
238 63 791
239 62 778
240 62 87
241 62 187
242 62 418
243 62 313
244 62 963
245 61 885
246 61 619
247 61 54
248 61 938
249 60 387
250 60 451
251 60 467
252 60 885
253 60 644
254 60 963
255 60 303
256 59 49
257 59 598
258 59 806
259 59 944
260 59 944
261 58 499
262 58 384
263 58 702
264 58 68
265 58 405
266 58 84
267 58 184
268 57 844
269 57 967
270 57 869
271 57 42
272 57 329
273 56 455
274 56 46
275 56 881
276 56 175
277 56 571
278 55 959
279 55 646
280 55 620
281 55 428
282 55 22
283 55 609
284 54 348
285 54 922
286 54 920
287 54 591
288 54 195
289 53 592
290 53 879
291 53 769
292 53 538
293 52 907
294 52 356
295 52 725
296 52 373
297 52 621
298 51 272
299 51 995
300 51 661
301 51 345
302 51 458
303 50 911
304 50 605
305 50 911
306 50 747
307 50 705
308 50 411
309 49 215
310 49 631
311 49 777
312 48 306
313 48 726
314 48 760
315 48 289
316 48 980
317 48 6
318 47 446
319 47 817
320 47 922
321 47 813
322 47 36
323 47 35
324 47 716
325 47 532
326 46 6
327 46 762
328 46 755
329 46 135
330 45 102
331 45 259
332 45 690
333 45 664
334 45 438
335 44 143
336 44 449
337 44 680
338 44 886
339 44 808
340 43 855
341 43 375
342 43 310
343 43 219
344 43 209
345 43 554
346 43 111
347 42 248
348 42 419
349 42 654
350 42 284
351 42 592
352 42 123
353 42 458
354 42 148
355 42 671
356 42 956
357 42 139
358 42 878
359 42 561
360 41 117
361 41 6
362 40 870
363 40 109
364 40 965
365 39 206
366 39 368
367 39 416
368 39 410
369 39 698
370 39 407
371 38 832
372 38 256
373 38 918
374 38 737
375 38 119
376 37 414
377 37 636
378 37 790
379 37 672
380 37 219
381 37 999
382 36 597
383 35 935
384 35 636
385 35 586
386 35 938
387 35 911
388 34 402
389 34 879
390 34 53
391 34 521
392 34 62
393 33 366
394 33 995
395 33 321
396 33 1000
397 33 400
398 33 625
399 33 568
400 33 898
401 32 22
402 32 370
403 32 601
404 32 29
405 32 149
406 31 106
407 31 690
408 31 770
409 31 282
410 31 816
411 31 576
412 31 925
413 30 538
414 30 865
415 30 785
416 30 887
417 30 675
418 30 143
419 30 37
420 30 675
421 30 199
422 29 93
423 29 847
424 29 511
425 29 898
426 28 682
427 28 943
428 28 220
429 28 657
430 28 14
431 28 405
432 28 929
433 27 78
434 26 234
435 26 364
436 26 909
437 26 935
438 25 887
439 25 224
440 25 401
441 25 534
442 25 13
443 25 491
444 25 307
445 25 294
446 24 324
447 24 282
448 24 948
449 23 456
450 23 870
451 23 646
452 22 46
453 22 755
454 22 365
455 22 745
456 22 514
457 22 932
458 22 25
459 22 580
460 22 44
461 22 744
462 21 549
463 21 214
464 21 58
465 20 539
466 20 808
467 20 924
468 20 445
469 20 0
470 20 226
471 20 678
472 19 853
473 19 236
474 19 553
475 19 144
476 19 764
477 18 50
478 18 100
479 18 895
480 18 524
481 18 443
482 18 473
483 18 616
484 18 85
485 17 715
486 17 844
487 17 280
488 17 634
489 16 633
490 16 398
491 16 130
492 16 547
493 16 581
494 15 320
495 15 146
496 15 235
497 15 346
498 15 873
499 15 820
500 15 438
